c Reduced graph for p09 generated by Cyril Grelier
p edge 25 100
e 1 2
e 1 3
e 1 12
e 1 16
e 1 17
e 1 18
e 1 20
e 1 21
e 2 11
e 2 12
e 2 13
e 2 14
e 2 15
e 2 18
e 2 20
e 3 10
e 3 15
e 3 16
e 3 17
e 3 19
e 3 21
e 3 22
e 4 5
e 4 9
e 4 14
e 4 17
e 4 18
e 4 19
e 4 23
e 4 24
e 5 7
e 5 8
e 5 12
e 5 14
e 5 17
e 5 22
e 5 24
e 6 8
e 6 10
e 6 11
e 6 16
e 6 20
e 6 23
e 6 24
e 6 25
e 7 8
e 7 9
e 7 12
e 7 13
e 7 21
e 7 22
e 7 25
e 8 11
e 8 12
e 8 16
e 8 22
e 8 23
e 9 13
e 9 18
e 9 19
e 9 21
e 9 23
e 9 25
e 10 15
e 10 19
e 10 20
e 10 22
e 10 24
e 10 25
e 11 13
e 11 14
e 11 15
e 11 16
e 11 23
e 12 18
e 12 20
e 12 22
e 13 14
e 13 15
e 13 21
e 13 25
e 14 15
e 14 17
e 14 24
e 15 19
e 15 22
e 16 17
e 16 21
e 16 23
e 17 21
e 17 24
e 18 19
e 18 20
e 18 23
e 19 22
e 19 23
e 20 24
e 20 25
e 21 25
e 24 25
